ssat_solver_solve2
#level: 2
Abc_NtkNodeNum(s->pNtk): 781  , BDD limit: 10240
level 1: 20 element
Exist
existence_eliminate_scope
Abc_NtkIsBddLogic(pNtk): 0
Abc_NtkIsStrash(pNtk): 1
existence_eliminate_scope_aig
exist by BDD failed
Abc_NtkNodeNum(s->pNtk): 22740332  , BDD limit: 27288398
Build BDD success
level 0: 20 element
Random
c ssat solving in ABC
#var: 40
s SATISFIABLE
  > Upper bound = 8.274441e-01
  > Lower bound = 8.274441e-01
FINISHED CPU 1157.79 MEM 0 MAXMEM 3914384 STALE 0 MAXMEM_RSS 3826176
<time name="ALL">1157880</time>
real 1158.09
user 1340.33
sys 502.41
